gen cost
0 1469
1 1448
2 1423
3 1414
4 1395
5 1393
6 1382
7 1360
8 1349
9 1349
10 1335
11 1324
12 1319
13 1318
14 1309
15 1306
16 1301
17 1293
18 1282
19 1282
20 1281
21 1277
22 1270
23 1261
24 1261
25 1237
26 1234
27 1225
28 1222
29 1210
30 1208
31 1207
32 1192
33 1189
34 1188
35 1185
36 1182
37 1181
38 1180
39 1169
40 1169
41 1169
42 1157
43 1147
44 1147
45 1147
46 1144
47 1140
48 1134
49 1132
